c User generated cnf file
p cnf 13 44
7 -6 7 0 
-5 6 7 0 
-12 4 5 0 
-2 13 9 0 
12 6 -13 0 
-12 1 6 0 
9 3 -7 0 
3 -3 4 0 
8 2 -4 0 
11 -12 9 0 
-11 7 5 0 
-13 1 7 0 
-10 6 4 0 
11 7 -11 0 
9 9 -6 0 
-9 12 4 0 
12 -13 12 0 
9 4 -8 0 
7 -13 6 0 
2 8 -11 0 
7 -11 12 0 
1 4 -8 0 
-9 5 2 0 
4 13 -5 0 
12 12 -3 0 
13 -4 3 0 
-1 3 11 0 
9 -8 10 0 
7 -10 2 0 
-12 9 13 0 
6 -4 3 0 
2 8 -13 0 
-11 7 11 0 
9 -9 9 0 
4 -12 4 0 
12 -9 8 0 
-5 6 13 0 
2 -5 13 0 
-12 6 7 0 
-3 5 8 0 
10 10 -11 0 
11 8 -11 0 
1 -9 13 0 
3 -12 6 0 
